NAME : in_house_9_5
TYPE : TSP
DIMENSION : 9
EDGE_WEIGHT_TYPE : EXPLICIT
EDGE_WEIGHT_FORMAT : UPPER_ROW
COMMENT : INVERSION_SHIFT=9
EDGE_WEIGHT_SECTION
37
46
69
25
48
52
61
46
47
9
76
45
10
40
17
20
33
61
13
44
29
73
25
29
30
45
66
4
68
76
59
18
45
78
53
2
